%Mem=64GB
%NProcShared=16
%chk=MOLECULE_NAME_CONFORMER_NUMBER.chk
#P B3LYP/6-31G(d) Int=UltraFine SCRF=(PCM, Solvent=Water) SCF(MaxCycle=512) Freq=SPECTROSCOPY

#MOLECULE_NAME_CONFORMER_NUMBER

0   1
